NAME : Data/eil101.tsp
COMMENT : Optimal tour for Data/eil101.tsp (tourLength = 693.0919275308951)
TYPE : TOUR
DIMENSION : 101
TOUR_SECTION
69
1
50
76
77
3
79
33
81
9
51
66
65
71
35
34
78
29
24
25
55
54
80
68
12
28
26
4
39
67
23
56
75
41
22
74
72
21
73
2
87
57
15
43
42
97
95
94
13
58
40
53
101
27
89
6
96
99
59
92
37
98
100
91
44
14
38
86
16
85
93
61
17
84
5
60
83
45
46
47
19
36
49
64
11
62
10
63
90
32
20
30
70
31
88
7
48
82
8
18
52
-1
EOF